* #variable= 75 #constraint= 25 #product= 150 sizeproduct= 300
min: +1 x1 x4 -1 x1 x13 +1 x1 x16 -1 x1 x61 +1 x2 x5 -1 x2 x14 +1 x2 x17 -1 x2 x62 +1 x3 x6 -1 x3 x15 +1 x3 x18 -1 x3 x63 -1 x4 x7 +1 x4 x19 -1 x4 x64 -1 x5 x8 +1 x5 x20 -1 x5 x65 -1 x6 x9 +1 x6 x21 -1 x6 x66 +1 x7 x10 -1 x7 x22 -1 x7 x67 +1 x8 x11 -1 x8 x23 -1 x8 x68 +1 x9 x12 -1 x9 x24 -1 x9 x69 +1 x10 x13 +1 x10 x25 -1 x10 x70 +1 x11 x14 +1 x11 x26 -1 x11 x71 +1 x12 x15 +1 x12 x27 -1 x12 x72 -1 x13 x28 -1 x13 x73 -1 x14 x29 -1 x14 x74 -1 x15 x30 -1 x15 x75 -1 x16 x19 +1 x16 x28 +1 x16 x31 -1 x17 x20 +1 x17 x29 +1 x17 x32 -1 x18 x21 +1 x18 x30 +1 x18 x33 +1 x19 x22 +1 x19 x34 +1 x20 x23 +1 x20 x35 +1 x21 x24 +1 x21 x36 -1 x22 x25 -1 x22 x37 -1 x23 x26 -1 x23 x38 -1 x24 x27 -1 x24 x39 +1 x25 x28 -1 x25 x40 +1 x26 x29 -1 x26 x41 +1 x27 x30 -1 x27 x42 -1 x28 x43 -1 x29 x44 -1 x30 x45 +1 x31 x34 +1 x31 x43 -1 x31 x46 +1 x32 x35 +1 x32 x44 -1 x32 x47 +1 x33 x36 +1 x33 x45 -1 x33 x48 -1 x34 x37 +1 x34 x49 -1 x35 x38 +1 x35 x50 -1 x36 x39 +1 x36 x51 -1 x37 x40 -1 x37 x52 -1 x38 x41 -1 x38 x53 -1 x39 x42 -1 x39 x54 +1 x40 x43 -1 x40 x55 +1 x41 x44 -1 x41 x56 +1 x42 x45 -1 x42 x57 +1 x43 x58 +1 x44 x59 +1 x45 x60 -1 x46 x49 +1 x46 x58 -1 x46 x61 -1 x47 x50 +1 x47 x59 -1 x47 x62 -1 x48 x51 +1 x48 x60 -1 x48 x63 +1 x49 x52 +1 x49 x64 +1 x50 x53 +1 x50 x65 +1 x51 x54 +1 x51 x66 +1 x52 x55 -1 x52 x67 +1 x53 x56 -1 x53 x68 +1 x54 x57 -1 x54 x69 -1 x55 x58 -1 x55 x70 -1 x56 x59 -1 x56 x71 -1 x57 x60 -1 x57 x72 +1 x58 x73 +1 x59 x74 +1 x60 x75 +1 x61 x64 +1 x61 x73 +1 x62 x65 +1 x62 x74 +1 x63 x66 +1 x63 x75 +1 x64 x67 +1 x65 x68 +1 x66 x69 -1 x67 x70 -1 x68 x71 -1 x69 x72 +1 x70 x73 +1 x71 x74 +1 x72 x75 ;
+1 x1 +1 x2 +1 x3 = 1 ;
+1 x4 +1 x5 +1 x6 = 1 ;
+1 x7 +1 x8 +1 x9 = 1 ;
+1 x10 +1 x11 +1 x12 = 1 ;
+1 x13 +1 x14 +1 x15 = 1 ;
+1 x16 +1 x17 +1 x18 = 1 ;
+1 x19 +1 x20 +1 x21 = 1 ;
+1 x22 +1 x23 +1 x24 = 1 ;
+1 x25 +1 x26 +1 x27 = 1 ;
+1 x28 +1 x29 +1 x30 = 1 ;
+1 x31 +1 x32 +1 x33 = 1 ;
+1 x34 +1 x35 +1 x36 = 1 ;
+1 x37 +1 x38 +1 x39 = 1 ;
+1 x40 +1 x41 +1 x42 = 1 ;
+1 x43 +1 x44 +1 x45 = 1 ;
+1 x46 +1 x47 +1 x48 = 1 ;
+1 x49 +1 x50 +1 x51 = 1 ;
+1 x52 +1 x53 +1 x54 = 1 ;
+1 x55 +1 x56 +1 x57 = 1 ;
+1 x58 +1 x59 +1 x60 = 1 ;
+1 x61 +1 x62 +1 x63 = 1 ;
+1 x64 +1 x65 +1 x66 = 1 ;
+1 x67 +1 x68 +1 x69 = 1 ;
+1 x70 +1 x71 +1 x72 = 1 ;
+1 x73 +1 x74 +1 x75 = 1 ;
